clingo version 5.2.2
Reading from ...t_all/instances/0062-visitall-19-1.asp ...
Solving...
Answer: 1
at(loc_x2_y2) visited(loc_x2_y2) atrobot(loc_x2_y2,0) connected(loc_x0_y0,loc_x1_y0) connected(loc_x0_y0,loc_x0_y1) connected(loc_x0_y1,loc_x1_y1) connected(loc_x0_y1,loc_x0_y0) connected(loc_x0_y3,loc_x1_y3) connected(loc_x1_y0,loc_x0_y0) connected(loc_x1_y0,loc_x2_y0) connected(loc_x1_y0,loc_x1_y1) connected(loc_x1_y1,loc_x0_y1) connected(loc_x1_y1,loc_x2_y1) connected(loc_x1_y1,loc_x1_y0) connected(loc_x1_y1,loc_x1_y2) connected(loc_x1_y2,loc_x2_y2) connected(loc_x1_y2,loc_x1_y1) connected(loc_x1_y2,loc_x1_y3) connected(loc_x1_y3,loc_x0_y3) connected(loc_x1_y3,loc_x2_y3) connected(loc_x1_y3,loc_x1_y2) connected(loc_x2_y0,loc_x1_y0) connected(loc_x2_y0,loc_x2_y1) connected(loc_x2_y1,loc_x1_y1) connected(loc_x2_y1,loc_x3_y1) connected(loc_x2_y1,loc_x2_y0) connected(loc_x2_y1,loc_x2_y2) connected(loc_x2_y2,loc_x1_y2) connected(loc_x2_y2,loc_x3_y2) connected(loc_x2_y2,loc_x2_y1) connected(loc_x2_y2,loc_x2_y3) connected(loc_x2_y3,loc_x1_y3) connected(loc_x2_y3,loc_x3_y3) connected(loc_x2_y3,loc_x2_y2) connected(loc_x3_y1,loc_x2_y1) connected(loc_x3_y1,loc_x3_y2) connected(loc_x3_y2,loc_x2_y2) connected(loc_x3_y2,loc_x3_y1) connected(loc_x3_y2,loc_x3_y3) connected(loc_x3_y3,loc_x2_y3) connected(loc_x3_y3,loc_x3_y2) step(1) step(2) step(3) step(4) step(5) step(6) step(7) step(8) step(9) step(10) step(11) step(12) step(13) step(14) step(15) step(16) step(17) step(18) step(19) visit(loc_x0_y0) visit(loc_x0_y1) visit(loc_x0_y3) visit(loc_x1_y0) visit(loc_x1_y1) visit(loc_x1_y2) visit(loc_x1_y3) visit(loc_x2_y0) visit(loc_x2_y1) visit(loc_x2_y2) visit(loc_x2_y3) visit(loc_x3_y1) visit(loc_x3_y2) visit(loc_x3_y3) atrobot(loc_x2_y1,1) move(loc_x2_y2,loc_x2_y1,1) atrobot(loc_x3_y1,2) move(loc_x2_y1,loc_x3_y1,2) atrobot(loc_x2_y1,3) move(loc_x3_y1,loc_x2_y1,3) atrobot(loc_x1_y1,4) move(loc_x2_y1,loc_x1_y1,4) atrobot(loc_x2_y1,5) move(loc_x1_y1,loc_x2_y1,5) atrobot(loc_x3_y1,6) move(loc_x2_y1,loc_x3_y1,6) atrobot(loc_x2_y1,7) move(loc_x3_y1,loc_x2_y1,7) atrobot(loc_x2_y0,8) move(loc_x2_y1,loc_x2_y0,8) atrobot(loc_x1_y0,9) move(loc_x2_y0,loc_x1_y0,9) atrobot(loc_x0_y0,10) move(loc_x1_y0,loc_x0_y0,10) atrobot(loc_x0_y1,11) move(loc_x0_y0,loc_x0_y1,11) atrobot(loc_x1_y1,12) move(loc_x0_y1,loc_x1_y1,12) atrobot(loc_x1_y2,13) move(loc_x1_y1,loc_x1_y2,13) atrobot(loc_x2_y2,14) move(loc_x1_y2,loc_x2_y2,14) atrobot(loc_x3_y2,15) move(loc_x2_y2,loc_x3_y2,15) atrobot(loc_x3_y3,16) move(loc_x3_y2,loc_x3_y3,16) atrobot(loc_x2_y3,17) move(loc_x3_y3,loc_x2_y3,17) atrobot(loc_x1_y3,18) move(loc_x2_y3,loc_x1_y3,18) atrobot(loc_x0_y3,19) move(loc_x1_y3,loc_x0_y3,19) del(atrobot(loc_x2_y2),1) del(atrobot(loc_x2_y1),2) del(atrobot(loc_x3_y1),3) del(atrobot(loc_x2_y1),4) del(atrobot(loc_x1_y1),5) del(atrobot(loc_x2_y1),6) del(atrobot(loc_x3_y1),7) del(atrobot(loc_x2_y1),8) del(atrobot(loc_x2_y0),9) del(atrobot(loc_x1_y0),10) del(atrobot(loc_x0_y0),11) del(atrobot(loc_x0_y1),12) del(atrobot(loc_x1_y1),13) del(atrobot(loc_x1_y2),14) del(atrobot(loc_x2_y2),15) del(atrobot(loc_x3_y2),16) del(atrobot(loc_x3_y3),17) del(atrobot(loc_x2_y3),18) del(atrobot(loc_x1_y3),19) visited(loc_x1_y0) visited(loc_x0_y1) visited(loc_x1_y1) visited(loc_x0_y0) visited(loc_x1_y3) visited(loc_x2_y0) visited(loc_x2_y1) visited(loc_x1_y2) visited(loc_x0_y3) visited(loc_x2_y3) visited(loc_x3_y1) visited(loc_x3_y2) visited(loc_x3_y3) goalreached
Answer: 2
at(loc_x2_y2) visited(loc_x2_y2) atrobot(loc_x2_y2,0) connected(loc_x0_y0,loc_x1_y0) connected(loc_x0_y0,loc_x0_y1) connected(loc_x0_y1,loc_x1_y1) connected(loc_x0_y1,loc_x0_y0) connected(loc_x0_y3,loc_x1_y3) connected(loc_x1_y0,loc_x0_y0) connected(loc_x1_y0,loc_x2_y0) connected(loc_x1_y0,loc_x1_y1) connected(loc_x1_y1,loc_x0_y1) connected(loc_x1_y1,loc_x2_y1) connected(loc_x1_y1,loc_x1_y0) connected(loc_x1_y1,loc_x1_y2) connected(loc_x1_y2,loc_x2_y2) connected(loc_x1_y2,loc_x1_y1) connected(loc_x1_y2,loc_x1_y3) connected(loc_x1_y3,loc_x0_y3) connected(loc_x1_y3,loc_x2_y3) connected(loc_x1_y3,loc_x1_y2) connected(loc_x2_y0,loc_x1_y0) connected(loc_x2_y0,loc_x2_y1) connected(loc_x2_y1,loc_x1_y1) connected(loc_x2_y1,loc_x3_y1) connected(loc_x2_y1,loc_x2_y0) connected(loc_x2_y1,loc_x2_y2) connected(loc_x2_y2,loc_x1_y2) connected(loc_x2_y2,loc_x3_y2) connected(loc_x2_y2,loc_x2_y1) connected(loc_x2_y2,loc_x2_y3) connected(loc_x2_y3,loc_x1_y3) connected(loc_x2_y3,loc_x3_y3) connected(loc_x2_y3,loc_x2_y2) connected(loc_x3_y1,loc_x2_y1) connected(loc_x3_y1,loc_x3_y2) connected(loc_x3_y2,loc_x2_y2) connected(loc_x3_y2,loc_x3_y1) connected(loc_x3_y2,loc_x3_y3) connected(loc_x3_y3,loc_x2_y3) connected(loc_x3_y3,loc_x3_y2) step(1) step(2) step(3) step(4) step(5) step(6) step(7) step(8) step(9) step(10) step(11) step(12) step(13) step(14) step(15) step(16) step(17) step(18) step(19) visit(loc_x0_y0) visit(loc_x0_y1) visit(loc_x0_y3) visit(loc_x1_y0) visit(loc_x1_y1) visit(loc_x1_y2) visit(loc_x1_y3) visit(loc_x2_y0) visit(loc_x2_y1) visit(loc_x2_y2) visit(loc_x2_y3) visit(loc_x3_y1) visit(loc_x3_y2) visit(loc_x3_y3) atrobot(loc_x2_y1,1) move(loc_x2_y2,loc_x2_y1,1) atrobot(loc_x3_y1,2) move(loc_x2_y1,loc_x3_y1,2) atrobot(loc_x2_y1,3) move(loc_x3_y1,loc_x2_y1,3) atrobot(loc_x1_y1,4) move(loc_x2_y1,loc_x1_y1,4) atrobot(loc_x2_y1,5) move(loc_x1_y1,loc_x2_y1,5) atrobot(loc_x3_y1,6) move(loc_x2_y1,loc_x3_y1,6) atrobot(loc_x2_y1,7) move(loc_x3_y1,loc_x2_y1,7) atrobot(loc_x2_y0,8) move(loc_x2_y1,loc_x2_y0,8) atrobot(loc_x1_y0,9) move(loc_x2_y0,loc_x1_y0,9) atrobot(loc_x0_y0,10) move(loc_x1_y0,loc_x0_y0,10) atrobot(loc_x0_y1,11) move(loc_x0_y0,loc_x0_y1,11) atrobot(loc_x1_y1,12) move(loc_x0_y1,loc_x1_y1,12) atrobot(loc_x1_y2,13) move(loc_x1_y1,loc_x1_y2,13) atrobot(loc_x1_y3,14) move(loc_x1_y2,loc_x1_y3,14) atrobot(loc_x0_y3,15) move(loc_x1_y3,loc_x0_y3,15) atrobot(loc_x1_y3,16) move(loc_x0_y3,loc_x1_y3,16) atrobot(loc_x2_y3,17) move(loc_x1_y3,loc_x2_y3,17) atrobot(loc_x3_y3,18) move(loc_x2_y3,loc_x3_y3,18) atrobot(loc_x3_y2,19) move(loc_x3_y3,loc_x3_y2,19) del(atrobot(loc_x2_y2),1) del(atrobot(loc_x2_y1),2) del(atrobot(loc_x3_y1),3) del(atrobot(loc_x2_y1),4) del(atrobot(loc_x1_y1),5) del(atrobot(loc_x2_y1),6) del(atrobot(loc_x3_y1),7) del(atrobot(loc_x2_y1),8) del(atrobot(loc_x2_y0),9) del(atrobot(loc_x1_y0),10) del(atrobot(loc_x0_y0),11) del(atrobot(loc_x0_y1),12) del(atrobot(loc_x1_y1),13) del(atrobot(loc_x1_y2),14) del(atrobot(loc_x1_y3),15) del(atrobot(loc_x0_y3),16) del(atrobot(loc_x1_y3),17) del(atrobot(loc_x2_y3),18) del(atrobot(loc_x3_y3),19) visited(loc_x1_y0) visited(loc_x0_y1) visited(loc_x1_y1) visited(loc_x0_y0) visited(loc_x1_y3) visited(loc_x2_y0) visited(loc_x2_y1) visited(loc_x1_y2) visited(loc_x0_y3) visited(loc_x2_y3) visited(loc_x3_y1) visited(loc_x3_y2) visited(loc_x3_y3) goalreached
Answer: 3
at(loc_x2_y2) visited(loc_x2_y2) atrobot(loc_x2_y2,0) connected(loc_x0_y0,loc_x1_y0) connected(loc_x0_y0,loc_x0_y1) connected(loc_x0_y1,loc_x1_y1) connected(loc_x0_y1,loc_x0_y0) connected(loc_x0_y3,loc_x1_y3) connected(loc_x1_y0,loc_x0_y0) connected(loc_x1_y0,loc_x2_y0) connected(loc_x1_y0,loc_x1_y1) connected(loc_x1_y1,loc_x0_y1) connected(loc_x1_y1,loc_x2_y1) connected(loc_x1_y1,loc_x1_y0) connected(loc_x1_y1,loc_x1_y2) connected(loc_x1_y2,loc_x2_y2) connected(loc_x1_y2,loc_x1_y1) connected(loc_x1_y2,loc_x1_y3) connected(loc_x1_y3,loc_x0_y3) connected(loc_x1_y3,loc_x2_y3) connected(loc_x1_y3,loc_x1_y2) connected(loc_x2_y0,loc_x1_y0) connected(loc_x2_y0,loc_x2_y1) connected(loc_x2_y1,loc_x1_y1) connected(loc_x2_y1,loc_x3_y1) connected(loc_x2_y1,loc_x2_y0) connected(loc_x2_y1,loc_x2_y2) connected(loc_x2_y2,loc_x1_y2) connected(loc_x2_y2,loc_x3_y2) connected(loc_x2_y2,loc_x2_y1) connected(loc_x2_y2,loc_x2_y3) connected(loc_x2_y3,loc_x1_y3) connected(loc_x2_y3,loc_x3_y3) connected(loc_x2_y3,loc_x2_y2) connected(loc_x3_y1,loc_x2_y1) connected(loc_x3_y1,loc_x3_y2) connected(loc_x3_y2,loc_x2_y2) connected(loc_x3_y2,loc_x3_y1) connected(loc_x3_y2,loc_x3_y3) connected(loc_x3_y3,loc_x2_y3) connected(loc_x3_y3,loc_x3_y2) step(1) step(2) step(3) step(4) step(5) step(6) step(7) step(8) step(9) step(10) step(11) step(12) step(13) step(14) step(15) step(16) step(17) step(18) step(19) visit(loc_x0_y0) visit(loc_x0_y1) visit(loc_x0_y3) visit(loc_x1_y0) visit(loc_x1_y1) visit(loc_x1_y2) visit(loc_x1_y3) visit(loc_x2_y0) visit(loc_x2_y1) visit(loc_x2_y2) visit(loc_x2_y3) visit(loc_x3_y1) visit(loc_x3_y2) visit(loc_x3_y3) atrobot(loc_x2_y1,1) move(loc_x2_y2,loc_x2_y1,1) atrobot(loc_x3_y1,2) move(loc_x2_y1,loc_x3_y1,2) atrobot(loc_x2_y1,3) move(loc_x3_y1,loc_x2_y1,3) atrobot(loc_x1_y1,4) move(loc_x2_y1,loc_x1_y1,4) atrobot(loc_x2_y1,5) move(loc_x1_y1,loc_x2_y1,5) atrobot(loc_x3_y1,6) move(loc_x2_y1,loc_x3_y1,6) atrobot(loc_x3_y2,7) move(loc_x3_y1,loc_x3_y2,7) atrobot(loc_x3_y3,8) move(loc_x3_y2,loc_x3_y3,8) atrobot(loc_x2_y3,9) move(loc_x3_y3,loc_x2_y3,9) atrobot(loc_x1_y3,10) move(loc_x2_y3,loc_x1_y3,10) atrobot(loc_x0_y3,11) move(loc_x1_y3,loc_x0_y3,11) atrobot(loc_x1_y3,12) move(loc_x0_y3,loc_x1_y3,12) atrobot(loc_x1_y2,13) move(loc_x1_y3,loc_x1_y2,13) atrobot(loc_x1_y1,14) move(loc_x1_y2,loc_x1_y1,14) atrobot(loc_x0_y1,15) move(loc_x1_y1,loc_x0_y1,15) atrobot(loc_x0_y0,16) move(loc_x0_y1,loc_x0_y0,16) atrobot(loc_x1_y0,17) move(loc_x0_y0,loc_x1_y0,17) atrobot(loc_x2_y0,18) move(loc_x1_y0,loc_x2_y0,18) atrobot(loc_x1_y0,19) move(loc_x2_y0,loc_x1_y0,19) del(atrobot(loc_x2_y2),1) del(atrobot(loc_x2_y1),2) del(atrobot(loc_x3_y1),3) del(atrobot(loc_x2_y1),4) del(atrobot(loc_x1_y1),5) del(atrobot(loc_x2_y1),6) del(atrobot(loc_x3_y1),7) del(atrobot(loc_x3_y2),8) del(atrobot(loc_x3_y3),9) del(atrobot(loc_x2_y3),10) del(atrobot(loc_x1_y3),11) del(atrobot(loc_x0_y3),12) del(atrobot(loc_x1_y3),13) del(atrobot(loc_x1_y2),14) del(atrobot(loc_x1_y1),15) del(atrobot(loc_x0_y1),16) del(atrobot(loc_x0_y0),17) del(atrobot(loc_x1_y0),18) del(atrobot(loc_x2_y0),19) visited(loc_x1_y0) visited(loc_x0_y1) visited(loc_x1_y1) visited(loc_x0_y0) visited(loc_x1_y3) visited(loc_x2_y0) visited(loc_x2_y1) visited(loc_x1_y2) visited(loc_x0_y3) visited(loc_x2_y3) visited(loc_x3_y1) visited(loc_x3_y2) visited(loc_x3_y3) goalreached
Answer: 4
at(loc_x2_y2) visited(loc_x2_y2) atrobot(loc_x2_y2,0) connected(loc_x0_y0,loc_x1_y0) connected(loc_x0_y0,loc_x0_y1) connected(loc_x0_y1,loc_x1_y1) connected(loc_x0_y1,loc_x0_y0) connected(loc_x0_y3,loc_x1_y3) connected(loc_x1_y0,loc_x0_y0) connected(loc_x1_y0,loc_x2_y0) connected(loc_x1_y0,loc_x1_y1) connected(loc_x1_y1,loc_x0_y1) connected(loc_x1_y1,loc_x2_y1) connected(loc_x1_y1,loc_x1_y0) connected(loc_x1_y1,loc_x1_y2) connected(loc_x1_y2,loc_x2_y2) connected(loc_x1_y2,loc_x1_y1) connected(loc_x1_y2,loc_x1_y3) connected(loc_x1_y3,loc_x0_y3) connected(loc_x1_y3,loc_x2_y3) connected(loc_x1_y3,loc_x1_y2) connected(loc_x2_y0,loc_x1_y0) connected(loc_x2_y0,loc_x2_y1) connected(loc_x2_y1,loc_x1_y1) connected(loc_x2_y1,loc_x3_y1) connected(loc_x2_y1,loc_x2_y0) connected(loc_x2_y1,loc_x2_y2) connected(loc_x2_y2,loc_x1_y2) connected(loc_x2_y2,loc_x3_y2) connected(loc_x2_y2,loc_x2_y1) connected(loc_x2_y2,loc_x2_y3) connected(loc_x2_y3,loc_x1_y3) connected(loc_x2_y3,loc_x3_y3) connected(loc_x2_y3,loc_x2_y2) connected(loc_x3_y1,loc_x2_y1) connected(loc_x3_y1,loc_x3_y2) connected(loc_x3_y2,loc_x2_y2) connected(loc_x3_y2,loc_x3_y1) connected(loc_x3_y2,loc_x3_y3) connected(loc_x3_y3,loc_x2_y3) connected(loc_x3_y3,loc_x3_y2) step(1) step(2) step(3) step(4) step(5) step(6) step(7) step(8) step(9) step(10) step(11) step(12) step(13) step(14) step(15) step(16) step(17) step(18) step(19) visit(loc_x0_y0) visit(loc_x0_y1) visit(loc_x0_y3) visit(loc_x1_y0) visit(loc_x1_y1) visit(loc_x1_y2) visit(loc_x1_y3) visit(loc_x2_y0) visit(loc_x2_y1) visit(loc_x2_y2) visit(loc_x2_y3) visit(loc_x3_y1) visit(loc_x3_y2) visit(loc_x3_y3) atrobot(loc_x2_y1,1) move(loc_x2_y2,loc_x2_y1,1) atrobot(loc_x3_y1,2) move(loc_x2_y1,loc_x3_y1,2) atrobot(loc_x2_y1,3) move(loc_x3_y1,loc_x2_y1,3) atrobot(loc_x1_y1,4) move(loc_x2_y1,loc_x1_y1,4) atrobot(loc_x2_y1,5) move(loc_x1_y1,loc_x2_y1,5) atrobot(loc_x3_y1,6) move(loc_x2_y1,loc_x3_y1,6) atrobot(loc_x3_y2,7) move(loc_x3_y1,loc_x3_y2,7) atrobot(loc_x3_y3,8) move(loc_x3_y2,loc_x3_y3,8) atrobot(loc_x2_y3,9) move(loc_x3_y3,loc_x2_y3,9) atrobot(loc_x1_y3,10) move(loc_x2_y3,loc_x1_y3,10) atrobot(loc_x0_y3,11) move(loc_x1_y3,loc_x0_y3,11) atrobot(loc_x1_y3,12) move(loc_x0_y3,loc_x1_y3,12) atrobot(loc_x1_y2,13) move(loc_x1_y3,loc_x1_y2,13) atrobot(loc_x1_y1,14) move(loc_x1_y2,loc_x1_y1,14) atrobot(loc_x0_y1,15) move(loc_x1_y1,loc_x0_y1,15) atrobot(loc_x0_y0,16) move(loc_x0_y1,loc_x0_y0,16) atrobot(loc_x1_y0,17) move(loc_x0_y0,loc_x1_y0,17) atrobot(loc_x2_y0,18) move(loc_x1_y0,loc_x2_y0,18) atrobot(loc_x2_y1,19) move(loc_x2_y0,loc_x2_y1,19) del(atrobot(loc_x2_y2),1) del(atrobot(loc_x2_y1),2) del(atrobot(loc_x3_y1),3) del(atrobot(loc_x2_y1),4) del(atrobot(loc_x1_y1),5) del(atrobot(loc_x2_y1),6) del(atrobot(loc_x3_y1),7) del(atrobot(loc_x3_y2),8) del(atrobot(loc_x3_y3),9) del(atrobot(loc_x2_y3),10) del(atrobot(loc_x1_y3),11) del(atrobot(loc_x0_y3),12) del(atrobot(loc_x1_y3),13) del(atrobot(loc_x1_y2),14) del(atrobot(loc_x1_y1),15) del(atrobot(loc_x0_y1),16) del(atrobot(loc_x0_y0),17) del(atrobot(loc_x1_y0),18) del(atrobot(loc_x2_y0),19) visited(loc_x1_y0) visited(loc_x0_y1) visited(loc_x1_y1) visited(loc_x0_y0) visited(loc_x1_y3) visited(loc_x2_y0) visited(loc_x2_y1) visited(loc_x1_y2) visited(loc_x0_y3) visited(loc_x2_y3) visited(loc_x3_y1) visited(loc_x3_y2) visited(loc_x3_y3) goalreached
Answer: 5
at(loc_x2_y2) visited(loc_x2_y2) atrobot(loc_x2_y2,0) connected(loc_x0_y0,loc_x1_y0) connected(loc_x0_y0,loc_x0_y1) connected(loc_x0_y1,loc_x1_y1) connected(loc_x0_y1,loc_x0_y0) connected(loc_x0_y3,loc_x1_y3) connected(loc_x1_y0,loc_x0_y0) connected(loc_x1_y0,loc_x2_y0) connected(loc_x1_y0,loc_x1_y1) connected(loc_x1_y1,loc_x0_y1) connected(loc_x1_y1,loc_x2_y1) connected(loc_x1_y1,loc_x1_y0) connected(loc_x1_y1,loc_x1_y2) connected(loc_x1_y2,loc_x2_y2) connected(loc_x1_y2,loc_x1_y1) connected(loc_x1_y2,loc_x1_y3) connected(loc_x1_y3,loc_x0_y3) connected(loc_x1_y3,loc_x2_y3) connected(loc_x1_y3,loc_x1_y2) connected(loc_x2_y0,loc_x1_y0) connected(loc_x2_y0,loc_x2_y1) connected(loc_x2_y1,loc_x1_y1) connected(loc_x2_y1,loc_x3_y1) connected(loc_x2_y1,loc_x2_y0) connected(loc_x2_y1,loc_x2_y2) connected(loc_x2_y2,loc_x1_y2) connected(loc_x2_y2,loc_x3_y2) connected(loc_x2_y2,loc_x2_y1) connected(loc_x2_y2,loc_x2_y3) connected(loc_x2_y3,loc_x1_y3) connected(loc_x2_y3,loc_x3_y3) connected(loc_x2_y3,loc_x2_y2) connected(loc_x3_y1,loc_x2_y1) connected(loc_x3_y1,loc_x3_y2) connected(loc_x3_y2,loc_x2_y2) connected(loc_x3_y2,loc_x3_y1) connected(loc_x3_y2,loc_x3_y3) connected(loc_x3_y3,loc_x2_y3) connected(loc_x3_y3,loc_x3_y2) step(1) step(2) step(3) step(4) step(5) step(6) step(7) step(8) step(9) step(10) step(11) step(12) step(13) step(14) step(15) step(16) step(17) step(18) step(19) visit(loc_x0_y0) visit(loc_x0_y1) visit(loc_x0_y3) visit(loc_x1_y0) visit(loc_x1_y1) visit(loc_x1_y2) visit(loc_x1_y3) visit(loc_x2_y0) visit(loc_x2_y1) visit(loc_x2_y2) visit(loc_x2_y3) visit(loc_x3_y1) visit(loc_x3_y2) visit(loc_x3_y3) atrobot(loc_x2_y1,1) move(loc_x2_y2,loc_x2_y1,1) atrobot(loc_x3_y1,2) move(loc_x2_y1,loc_x3_y1,2) atrobot(loc_x2_y1,3) move(loc_x3_y1,loc_x2_y1,3) atrobot(loc_x1_y1,4) move(loc_x2_y1,loc_x1_y1,4) atrobot(loc_x2_y1,5) move(loc_x1_y1,loc_x2_y1,5) atrobot(loc_x3_y1,6) move(loc_x2_y1,loc_x3_y1,6) atrobot(loc_x3_y2,7) move(loc_x3_y1,loc_x3_y2,7) atrobot(loc_x3_y3,8) move(loc_x3_y2,loc_x3_y3,8) atrobot(loc_x2_y3,9) move(loc_x3_y3,loc_x2_y3,9) atrobot(loc_x1_y3,10) move(loc_x2_y3,loc_x1_y3,10) atrobot(loc_x0_y3,11) move(loc_x1_y3,loc_x0_y3,11) atrobot(loc_x1_y3,12) move(loc_x0_y3,loc_x1_y3,12) atrobot(loc_x1_y2,13) move(loc_x1_y3,loc_x1_y2,13) atrobot(loc_x1_y1,14) move(loc_x1_y2,loc_x1_y1,14) atrobot(loc_x1_y0,15) move(loc_x1_y1,loc_x1_y0,15) atrobot(loc_x2_y0,16) move(loc_x1_y0,loc_x2_y0,16) atrobot(loc_x1_y0,17) move(loc_x2_y0,loc_x1_y0,17) atrobot(loc_x0_y0,18) move(loc_x1_y0,loc_x0_y0,18) atrobot(loc_x0_y1,19) move(loc_x0_y0,loc_x0_y1,19) del(atrobot(loc_x2_y2),1) del(atrobot(loc_x2_y1),2) del(atrobot(loc_x3_y1),3) del(atrobot(loc_x2_y1),4) del(atrobot(loc_x1_y1),5) del(atrobot(loc_x2_y1),6) del(atrobot(loc_x3_y1),7) del(atrobot(loc_x3_y2),8) del(atrobot(loc_x3_y3),9) del(atrobot(loc_x2_y3),10) del(atrobot(loc_x1_y3),11) del(atrobot(loc_x0_y3),12) del(atrobot(loc_x1_y3),13) del(atrobot(loc_x1_y2),14) del(atrobot(loc_x1_y1),15) del(atrobot(loc_x1_y0),16) del(atrobot(loc_x2_y0),17) del(atrobot(loc_x1_y0),18) del(atrobot(loc_x0_y0),19) visited(loc_x1_y0) visited(loc_x0_y1) visited(loc_x1_y1) visited(loc_x0_y0) visited(loc_x1_y3) visited(loc_x2_y0) visited(loc_x2_y1) visited(loc_x1_y2) visited(loc_x0_y3) visited(loc_x2_y3) visited(loc_x3_y1) visited(loc_x3_y2) visited(loc_x3_y3) goalreached
Answer: 6
at(loc_x2_y2) visited(loc_x2_y2) atrobot(loc_x2_y2,0) connected(loc_x0_y0,loc_x1_y0) connected(loc_x0_y0,loc_x0_y1) connected(loc_x0_y1,loc_x1_y1) connected(loc_x0_y1,loc_x0_y0) connected(loc_x0_y3,loc_x1_y3) connected(loc_x1_y0,loc_x0_y0) connected(loc_x1_y0,loc_x2_y0) connected(loc_x1_y0,loc_x1_y1) connected(loc_x1_y1,loc_x0_y1) connected(loc_x1_y1,loc_x2_y1) connected(loc_x1_y1,loc_x1_y0) connected(loc_x1_y1,loc_x1_y2) connected(loc_x1_y2,loc_x2_y2) connected(loc_x1_y2,loc_x1_y1) connected(loc_x1_y2,loc_x1_y3) connected(loc_x1_y3,loc_x0_y3) connected(loc_x1_y3,loc_x2_y3) connected(loc_x1_y3,loc_x1_y2) connected(loc_x2_y0,loc_x1_y0) connected(loc_x2_y0,loc_x2_y1) connected(loc_x2_y1,loc_x1_y1) connected(loc_x2_y1,loc_x3_y1) connected(loc_x2_y1,loc_x2_y0) connected(loc_x2_y1,loc_x2_y2) connected(loc_x2_y2,loc_x1_y2) connected(loc_x2_y2,loc_x3_y2) connected(loc_x2_y2,loc_x2_y1) connected(loc_x2_y2,loc_x2_y3) connected(loc_x2_y3,loc_x1_y3) connected(loc_x2_y3,loc_x3_y3) connected(loc_x2_y3,loc_x2_y2) connected(loc_x3_y1,loc_x2_y1) connected(loc_x3_y1,loc_x3_y2) connected(loc_x3_y2,loc_x2_y2) connected(loc_x3_y2,loc_x3_y1) connected(loc_x3_y2,loc_x3_y3) connected(loc_x3_y3,loc_x2_y3) connected(loc_x3_y3,loc_x3_y2) step(1) step(2) step(3) step(4) step(5) step(6) step(7) step(8) step(9) step(10) step(11) step(12) step(13) step(14) step(15) step(16) step(17) step(18) step(19) visit(loc_x0_y0) visit(loc_x0_y1) visit(loc_x0_y3) visit(loc_x1_y0) visit(loc_x1_y1) visit(loc_x1_y2) visit(loc_x1_y3) visit(loc_x2_y0) visit(loc_x2_y1) visit(loc_x2_y2) visit(loc_x2_y3) visit(loc_x3_y1) visit(loc_x3_y2) visit(loc_x3_y3) atrobot(loc_x2_y1,1) move(loc_x2_y2,loc_x2_y1,1) atrobot(loc_x3_y1,2) move(loc_x2_y1,loc_x3_y1,2) atrobot(loc_x2_y1,3) move(loc_x3_y1,loc_x2_y1,3) atrobot(loc_x1_y1,4) move(loc_x2_y1,loc_x1_y1,4) atrobot(loc_x2_y1,5) move(loc_x1_y1,loc_x2_y1,5) atrobot(loc_x3_y1,6) move(loc_x2_y1,loc_x3_y1,6) atrobot(loc_x3_y2,7) move(loc_x3_y1,loc_x3_y2,7) atrobot(loc_x3_y3,8) move(loc_x3_y2,loc_x3_y3,8) atrobot(loc_x2_y3,9) move(loc_x3_y3,loc_x2_y3,9) atrobot(loc_x1_y3,10) move(loc_x2_y3,loc_x1_y3,10) atrobot(loc_x0_y3,11) move(loc_x1_y3,loc_x0_y3,11) atrobot(loc_x1_y3,12) move(loc_x0_y3,loc_x1_y3,12) atrobot(loc_x1_y2,13) move(loc_x1_y3,loc_x1_y2,13) atrobot(loc_x1_y1,14) move(loc_x1_y2,loc_x1_y1,14) atrobot(loc_x2_y1,15) move(loc_x1_y1,loc_x2_y1,15) atrobot(loc_x2_y0,16) move(loc_x2_y1,loc_x2_y0,16) atrobot(loc_x1_y0,17) move(loc_x2_y0,loc_x1_y0,17) atrobot(loc_x0_y0,18) move(loc_x1_y0,loc_x0_y0,18) atrobot(loc_x0_y1,19) move(loc_x0_y0,loc_x0_y1,19) del(atrobot(loc_x2_y2),1) del(atrobot(loc_x2_y1),2) del(atrobot(loc_x3_y1),3) del(atrobot(loc_x2_y1),4) del(atrobot(loc_x1_y1),5) del(atrobot(loc_x2_y1),6) del(atrobot(loc_x3_y1),7) del(atrobot(loc_x3_y2),8) del(atrobot(loc_x3_y3),9) del(atrobot(loc_x2_y3),10) del(atrobot(loc_x1_y3),11) del(atrobot(loc_x0_y3),12) del(atrobot(loc_x1_y3),13) del(atrobot(loc_x1_y2),14) del(atrobot(loc_x1_y1),15) del(atrobot(loc_x2_y1),16) del(atrobot(loc_x2_y0),17) del(atrobot(loc_x1_y0),18) del(atrobot(loc_x0_y0),19) visited(loc_x1_y0) visited(loc_x0_y1) visited(loc_x1_y1) visited(loc_x0_y0) visited(loc_x1_y3) visited(loc_x2_y0) visited(loc_x2_y1) visited(loc_x1_y2) visited(loc_x0_y3) visited(loc_x2_y3) visited(loc_x3_y1) visited(loc_x3_y2) visited(loc_x3_y3) goalreached
Answer: 7
at(loc_x2_y2) visited(loc_x2_y2) atrobot(loc_x2_y2,0) connected(loc_x0_y0,loc_x1_y0) connected(loc_x0_y0,loc_x0_y1) connected(loc_x0_y1,loc_x1_y1) connected(loc_x0_y1,loc_x0_y0) connected(loc_x0_y3,loc_x1_y3) connected(loc_x1_y0,loc_x0_y0) connected(loc_x1_y0,loc_x2_y0) connected(loc_x1_y0,loc_x1_y1) connected(loc_x1_y1,loc_x0_y1) connected(loc_x1_y1,loc_x2_y1) connected(loc_x1_y1,loc_x1_y0) connected(loc_x1_y1,loc_x1_y2) connected(loc_x1_y2,loc_x2_y2) connected(loc_x1_y2,loc_x1_y1) connected(loc_x1_y2,loc_x1_y3) connected(loc_x1_y3,loc_x0_y3) connected(loc_x1_y3,loc_x2_y3) connected(loc_x1_y3,loc_x1_y2) connected(loc_x2_y0,loc_x1_y0) connected(loc_x2_y0,loc_x2_y1) connected(loc_x2_y1,loc_x1_y1) connected(loc_x2_y1,loc_x3_y1) connected(loc_x2_y1,loc_x2_y0) connected(loc_x2_y1,loc_x2_y2) connected(loc_x2_y2,loc_x1_y2) connected(loc_x2_y2,loc_x3_y2) connected(loc_x2_y2,loc_x2_y1) connected(loc_x2_y2,loc_x2_y3) connected(loc_x2_y3,loc_x1_y3) connected(loc_x2_y3,loc_x3_y3) connected(loc_x2_y3,loc_x2_y2) connected(loc_x3_y1,loc_x2_y1) connected(loc_x3_y1,loc_x3_y2) connected(loc_x3_y2,loc_x2_y2) connected(loc_x3_y2,loc_x3_y1) connected(loc_x3_y2,loc_x3_y3) connected(loc_x3_y3,loc_x2_y3) connected(loc_x3_y3,loc_x3_y2) step(1) step(2) step(3) step(4) step(5) step(6) step(7) step(8) step(9) step(10) step(11) step(12) step(13) step(14) step(15) step(16) step(17) step(18) step(19) visit(loc_x0_y0) visit(loc_x0_y1) visit(loc_x0_y3) visit(loc_x1_y0) visit(loc_x1_y1) visit(loc_x1_y2) visit(loc_x1_y3) visit(loc_x2_y0) visit(loc_x2_y1) visit(loc_x2_y2) visit(loc_x2_y3) visit(loc_x3_y1) visit(loc_x3_y2) visit(loc_x3_y3) atrobot(loc_x2_y1,1) move(loc_x2_y2,loc_x2_y1,1) atrobot(loc_x3_y1,2) move(loc_x2_y1,loc_x3_y1,2) atrobot(loc_x2_y1,3) move(loc_x3_y1,loc_x2_y1,3) atrobot(loc_x1_y1,4) move(loc_x2_y1,loc_x1_y1,4) atrobot(loc_x2_y1,5) move(loc_x1_y1,loc_x2_y1,5) atrobot(loc_x3_y1,6) move(loc_x2_y1,loc_x3_y1,6) atrobot(loc_x3_y2,7) move(loc_x3_y1,loc_x3_y2,7) atrobot(loc_x3_y3,8) move(loc_x3_y2,loc_x3_y3,8) atrobot(loc_x2_y3,9) move(loc_x3_y3,loc_x2_y3,9) atrobot(loc_x1_y3,10) move(loc_x2_y3,loc_x1_y3,10) atrobot(loc_x0_y3,11) move(loc_x1_y3,loc_x0_y3,11) atrobot(loc_x1_y3,12) move(loc_x0_y3,loc_x1_y3,12) atrobot(loc_x1_y2,13) move(loc_x1_y3,loc_x1_y2,13) atrobot(loc_x2_y2,14) move(loc_x1_y2,loc_x2_y2,14) atrobot(loc_x2_y1,15) move(loc_x2_y2,loc_x2_y1,15) atrobot(loc_x2_y0,16) move(loc_x2_y1,loc_x2_y0,16) atrobot(loc_x1_y0,17) move(loc_x2_y0,loc_x1_y0,17) atrobot(loc_x0_y0,18) move(loc_x1_y0,loc_x0_y0,18) atrobot(loc_x0_y1,19) move(loc_x0_y0,loc_x0_y1,19) del(atrobot(loc_x2_y2),1) del(atrobot(loc_x2_y1),2) del(atrobot(loc_x3_y1),3) del(atrobot(loc_x2_y1),4) del(atrobot(loc_x1_y1),5) del(atrobot(loc_x2_y1),6) del(atrobot(loc_x3_y1),7) del(atrobot(loc_x3_y2),8) del(atrobot(loc_x3_y3),9) del(atrobot(loc_x2_y3),10) del(atrobot(loc_x1_y3),11) del(atrobot(loc_x0_y3),12) del(atrobot(loc_x1_y3),13) del(atrobot(loc_x1_y2),14) del(atrobot(loc_x2_y2),15) del(atrobot(loc_x2_y1),16) del(atrobot(loc_x2_y0),17) del(atrobot(loc_x1_y0),18) del(atrobot(loc_x0_y0),19) visited(loc_x1_y0) visited(loc_x0_y1) visited(loc_x1_y1) visited(loc_x0_y0) visited(loc_x1_y3) visited(loc_x2_y0) visited(loc_x2_y1) visited(loc_x1_y2) visited(loc_x0_y3) visited(loc_x2_y3) visited(loc_x3_y1) visited(loc_x3_y2) visited(loc_x3_y3) goalreached
Answer: 8
at(loc_x2_y2) visited(loc_x2_y2) atrobot(loc_x2_y2,0) connected(loc_x0_y0,loc_x1_y0) connected(loc_x0_y0,loc_x0_y1) connected(loc_x0_y1,loc_x1_y1) connected(loc_x0_y1,loc_x0_y0) connected(loc_x0_y3,loc_x1_y3) connected(loc_x1_y0,loc_x0_y0) connected(loc_x1_y0,loc_x2_y0) connected(loc_x1_y0,loc_x1_y1) connected(loc_x1_y1,loc_x0_y1) connected(loc_x1_y1,loc_x2_y1) connected(loc_x1_y1,loc_x1_y0) connected(loc_x1_y1,loc_x1_y2) connected(loc_x1_y2,loc_x2_y2) connected(loc_x1_y2,loc_x1_y1) connected(loc_x1_y2,loc_x1_y3) connected(loc_x1_y3,loc_x0_y3) connected(loc_x1_y3,loc_x2_y3) connected(loc_x1_y3,loc_x1_y2) connected(loc_x2_y0,loc_x1_y0) connected(loc_x2_y0,loc_x2_y1) connected(loc_x2_y1,loc_x1_y1) connected(loc_x2_y1,loc_x3_y1) connected(loc_x2_y1,loc_x2_y0) connected(loc_x2_y1,loc_x2_y2) connected(loc_x2_y2,loc_x1_y2) connected(loc_x2_y2,loc_x3_y2) connected(loc_x2_y2,loc_x2_y1) connected(loc_x2_y2,loc_x2_y3) connected(loc_x2_y3,loc_x1_y3) connected(loc_x2_y3,loc_x3_y3) connected(loc_x2_y3,loc_x2_y2) connected(loc_x3_y1,loc_x2_y1) connected(loc_x3_y1,loc_x3_y2) connected(loc_x3_y2,loc_x2_y2) connected(loc_x3_y2,loc_x3_y1) connected(loc_x3_y2,loc_x3_y3) connected(loc_x3_y3,loc_x2_y3) connected(loc_x3_y3,loc_x3_y2) step(1) step(2) step(3) step(4) step(5) step(6) step(7) step(8) step(9) step(10) step(11) step(12) step(13) step(14) step(15) step(16) step(17) step(18) step(19) visit(loc_x0_y0) visit(loc_x0_y1) visit(loc_x0_y3) visit(loc_x1_y0) visit(loc_x1_y1) visit(loc_x1_y2) visit(loc_x1_y3) visit(loc_x2_y0) visit(loc_x2_y1) visit(loc_x2_y2) visit(loc_x2_y3) visit(loc_x3_y1) visit(loc_x3_y2) visit(loc_x3_y3) atrobot(loc_x2_y1,1) move(loc_x2_y2,loc_x2_y1,1) atrobot(loc_x3_y1,2) move(loc_x2_y1,loc_x3_y1,2) atrobot(loc_x2_y1,3) move(loc_x3_y1,loc_x2_y1,3) atrobot(loc_x1_y1,4) move(loc_x2_y1,loc_x1_y1,4) atrobot(loc_x2_y1,5) move(loc_x1_y1,loc_x2_y1,5) atrobot(loc_x3_y1,6) move(loc_x2_y1,loc_x3_y1,6) atrobot(loc_x3_y2,7) move(loc_x3_y1,loc_x3_y2,7) atrobot(loc_x3_y3,8) move(loc_x3_y2,loc_x3_y3,8) atrobot(loc_x2_y3,9) move(loc_x3_y3,loc_x2_y3,9) atrobot(loc_x2_y2,10) move(loc_x2_y3,loc_x2_y2,10) atrobot(loc_x2_y1,11) move(loc_x2_y2,loc_x2_y1,11) atrobot(loc_x2_y0,12) move(loc_x2_y1,loc_x2_y0,12) atrobot(loc_x1_y0,13) move(loc_x2_y0,loc_x1_y0,13) atrobot(loc_x0_y0,14) move(loc_x1_y0,loc_x0_y0,14) atrobot(loc_x0_y1,15) move(loc_x0_y0,loc_x0_y1,15) atrobot(loc_x1_y1,16) move(loc_x0_y1,loc_x1_y1,16) atrobot(loc_x1_y2,17) move(loc_x1_y1,loc_x1_y2,17) atrobot(loc_x1_y3,18) move(loc_x1_y2,loc_x1_y3,18) atrobot(loc_x0_y3,19) move(loc_x1_y3,loc_x0_y3,19) del(atrobot(loc_x2_y2),1) del(atrobot(loc_x2_y1),2) del(atrobot(loc_x3_y1),3) del(atrobot(loc_x2_y1),4) del(atrobot(loc_x1_y1),5) del(atrobot(loc_x2_y1),6) del(atrobot(loc_x3_y1),7) del(atrobot(loc_x3_y2),8) del(atrobot(loc_x3_y3),9) del(atrobot(loc_x2_y3),10) del(atrobot(loc_x2_y2),11) del(atrobot(loc_x2_y1),12) del(atrobot(loc_x2_y0),13) del(atrobot(loc_x1_y0),14) del(atrobot(loc_x0_y0),15) del(atrobot(loc_x0_y1),16) del(atrobot(loc_x1_y1),17) del(atrobot(loc_x1_y2),18) del(atrobot(loc_x1_y3),19) visited(loc_x1_y0) visited(loc_x0_y1) visited(loc_x1_y1) visited(loc_x0_y0) visited(loc_x1_y3) visited(loc_x2_y0) visited(loc_x2_y1) visited(loc_x1_y2) visited(loc_x0_y3) visited(loc_x2_y3) visited(loc_x3_y1) visited(loc_x3_y2) visited(loc_x3_y3) goalreached
Answer: 9
at(loc_x2_y2) visited(loc_x2_y2) atrobot(loc_x2_y2,0) connected(loc_x0_y0,loc_x1_y0) connected(loc_x0_y0,loc_x0_y1) connected(loc_x0_y1,loc_x1_y1) connected(loc_x0_y1,loc_x0_y0) connected(loc_x0_y3,loc_x1_y3) connected(loc_x1_y0,loc_x0_y0) connected(loc_x1_y0,loc_x2_y0) connected(loc_x1_y0,loc_x1_y1) connected(loc_x1_y1,loc_x0_y1) connected(loc_x1_y1,loc_x2_y1) connected(loc_x1_y1,loc_x1_y0) connected(loc_x1_y1,loc_x1_y2) connected(loc_x1_y2,loc_x2_y2) connected(loc_x1_y2,loc_x1_y1) connected(loc_x1_y2,loc_x1_y3) connected(loc_x1_y3,loc_x0_y3) connected(loc_x1_y3,loc_x2_y3) connected(loc_x1_y3,loc_x1_y2) connected(loc_x2_y0,loc_x1_y0) connected(loc_x2_y0,loc_x2_y1) connected(loc_x2_y1,loc_x1_y1) connected(loc_x2_y1,loc_x3_y1) connected(loc_x2_y1,loc_x2_y0) connected(loc_x2_y1,loc_x2_y2) connected(loc_x2_y2,loc_x1_y2) connected(loc_x2_y2,loc_x3_y2) connected(loc_x2_y2,loc_x2_y1) connected(loc_x2_y2,loc_x2_y3) connected(loc_x2_y3,loc_x1_y3) connected(loc_x2_y3,loc_x3_y3) connected(loc_x2_y3,loc_x2_y2) connected(loc_x3_y1,loc_x2_y1) connected(loc_x3_y1,loc_x3_y2) connected(loc_x3_y2,loc_x2_y2) connected(loc_x3_y2,loc_x3_y1) connected(loc_x3_y2,loc_x3_y3) connected(loc_x3_y3,loc_x2_y3) connected(loc_x3_y3,loc_x3_y2) step(1) step(2) step(3) step(4) step(5) step(6) step(7) step(8) step(9) step(10) step(11) step(12) step(13) step(14) step(15) step(16) step(17) step(18) step(19) visit(loc_x0_y0) visit(loc_x0_y1) visit(loc_x0_y3) visit(loc_x1_y0) visit(loc_x1_y1) visit(loc_x1_y2) visit(loc_x1_y3) visit(loc_x2_y0) visit(loc_x2_y1) visit(loc_x2_y2) visit(loc_x2_y3) visit(loc_x3_y1) visit(loc_x3_y2) visit(loc_x3_y3) atrobot(loc_x2_y1,1) move(loc_x2_y2,loc_x2_y1,1) atrobot(loc_x3_y1,2) move(loc_x2_y1,loc_x3_y1,2) atrobot(loc_x2_y1,3) move(loc_x3_y1,loc_x2_y1,3) atrobot(loc_x2_y0,4) move(loc_x2_y1,loc_x2_y0,4) atrobot(loc_x2_y1,5) move(loc_x2_y0,loc_x2_y1,5) atrobot(loc_x3_y1,6) move(loc_x2_y1,loc_x3_y1,6) atrobot(loc_x2_y1,7) move(loc_x3_y1,loc_x2_y1,7) atrobot(loc_x2_y0,8) move(loc_x2_y1,loc_x2_y0,8) atrobot(loc_x1_y0,9) move(loc_x2_y0,loc_x1_y0,9) atrobot(loc_x0_y0,10) move(loc_x1_y0,loc_x0_y0,10) atrobot(loc_x0_y1,11) move(loc_x0_y0,loc_x0_y1,11) atrobot(loc_x1_y1,12) move(loc_x0_y1,loc_x1_y1,12) atrobot(loc_x1_y2,13) move(loc_x1_y1,loc_x1_y2,13) atrobot(loc_x1_y3,14) move(loc_x1_y2,loc_x1_y3,14) atrobot(loc_x0_y3,15) move(loc_x1_y3,loc_x0_y3,15) atrobot(loc_x1_y3,16) move(loc_x0_y3,loc_x1_y3,16) atrobot(loc_x2_y3,17) move(loc_x1_y3,loc_x2_y3,17) atrobot(loc_x3_y3,18) move(loc_x2_y3,loc_x3_y3,18) atrobot(loc_x3_y2,19) move(loc_x3_y3,loc_x3_y2,19) del(atrobot(loc_x2_y2),1) del(atrobot(loc_x2_y1),2) del(atrobot(loc_x3_y1),3) del(atrobot(loc_x2_y1),4) del(atrobot(loc_x2_y0),5) del(atrobot(loc_x2_y1),6) del(atrobot(loc_x3_y1),7) del(atrobot(loc_x2_y1),8) del(atrobot(loc_x2_y0),9) del(atrobot(loc_x1_y0),10) del(atrobot(loc_x0_y0),11) del(atrobot(loc_x0_y1),12) del(atrobot(loc_x1_y1),13) del(atrobot(loc_x1_y2),14) del(atrobot(loc_x1_y3),15) del(atrobot(loc_x0_y3),16) del(atrobot(loc_x1_y3),17) del(atrobot(loc_x2_y3),18) del(atrobot(loc_x3_y3),19) visited(loc_x1_y0) visited(loc_x0_y1) visited(loc_x1_y1) visited(loc_x0_y0) visited(loc_x1_y3) visited(loc_x2_y0) visited(loc_x2_y1) visited(loc_x1_y2) visited(loc_x0_y3) visited(loc_x2_y3) visited(loc_x3_y1) visited(loc_x3_y2) visited(loc_x3_y3) goalreached
Answer: 10
at(loc_x2_y2) visited(loc_x2_y2) atrobot(loc_x2_y2,0) connected(loc_x0_y0,loc_x1_y0) connected(loc_x0_y0,loc_x0_y1) connected(loc_x0_y1,loc_x1_y1) connected(loc_x0_y1,loc_x0_y0) connected(loc_x0_y3,loc_x1_y3) connected(loc_x1_y0,loc_x0_y0) connected(loc_x1_y0,loc_x2_y0) connected(loc_x1_y0,loc_x1_y1) connected(loc_x1_y1,loc_x0_y1) connected(loc_x1_y1,loc_x2_y1) connected(loc_x1_y1,loc_x1_y0) connected(loc_x1_y1,loc_x1_y2) connected(loc_x1_y2,loc_x2_y2) connected(loc_x1_y2,loc_x1_y1) connected(loc_x1_y2,loc_x1_y3) connected(loc_x1_y3,loc_x0_y3) connected(loc_x1_y3,loc_x2_y3) connected(loc_x1_y3,loc_x1_y2) connected(loc_x2_y0,loc_x1_y0) connected(loc_x2_y0,loc_x2_y1) connected(loc_x2_y1,loc_x1_y1) connected(loc_x2_y1,loc_x3_y1) connected(loc_x2_y1,loc_x2_y0) connected(loc_x2_y1,loc_x2_y2) connected(loc_x2_y2,loc_x1_y2) connected(loc_x2_y2,loc_x3_y2) connected(loc_x2_y2,loc_x2_y1) connected(loc_x2_y2,loc_x2_y3) connected(loc_x2_y3,loc_x1_y3) connected(loc_x2_y3,loc_x3_y3) connected(loc_x2_y3,loc_x2_y2) connected(loc_x3_y1,loc_x2_y1) connected(loc_x3_y1,loc_x3_y2) connected(loc_x3_y2,loc_x2_y2) connected(loc_x3_y2,loc_x3_y1) connected(loc_x3_y2,loc_x3_y3) connected(loc_x3_y3,loc_x2_y3) connected(loc_x3_y3,loc_x3_y2) step(1) step(2) step(3) step(4) step(5) step(6) step(7) step(8) step(9) step(10) step(11) step(12) step(13) step(14) step(15) step(16) step(17) step(18) step(19) visit(loc_x0_y0) visit(loc_x0_y1) visit(loc_x0_y3) visit(loc_x1_y0) visit(loc_x1_y1) visit(loc_x1_y2) visit(loc_x1_y3) visit(loc_x2_y0) visit(loc_x2_y1) visit(loc_x2_y2) visit(loc_x2_y3) visit(loc_x3_y1) visit(loc_x3_y2) visit(loc_x3_y3) atrobot(loc_x2_y1,1) move(loc_x2_y2,loc_x2_y1,1) atrobot(loc_x3_y1,2) move(loc_x2_y1,loc_x3_y1,2) atrobot(loc_x2_y1,3) move(loc_x3_y1,loc_x2_y1,3) atrobot(loc_x2_y0,4) move(loc_x2_y1,loc_x2_y0,4) atrobot(loc_x2_y1,5) move(loc_x2_y0,loc_x2_y1,5) atrobot(loc_x3_y1,6) move(loc_x2_y1,loc_x3_y1,6) atrobot(loc_x2_y1,7) move(loc_x3_y1,loc_x2_y1,7) atrobot(loc_x2_y0,8) move(loc_x2_y1,loc_x2_y0,8) atrobot(loc_x1_y0,9) move(loc_x2_y0,loc_x1_y0,9) atrobot(loc_x0_y0,10) move(loc_x1_y0,loc_x0_y0,10) atrobot(loc_x0_y1,11) move(loc_x0_y0,loc_x0_y1,11) atrobot(loc_x1_y1,12) move(loc_x0_y1,loc_x1_y1,12) atrobot(loc_x1_y2,13) move(loc_x1_y1,loc_x1_y2,13) atrobot(loc_x2_y2,14) move(loc_x1_y2,loc_x2_y2,14) atrobot(loc_x3_y2,15) move(loc_x2_y2,loc_x3_y2,15) atrobot(loc_x3_y3,16) move(loc_x3_y2,loc_x3_y3,16) atrobot(loc_x2_y3,17) move(loc_x3_y3,loc_x2_y3,17) atrobot(loc_x1_y3,18) move(loc_x2_y3,loc_x1_y3,18) atrobot(loc_x0_y3,19) move(loc_x1_y3,loc_x0_y3,19) del(atrobot(loc_x2_y2),1) del(atrobot(loc_x2_y1),2) del(atrobot(loc_x3_y1),3) del(atrobot(loc_x2_y1),4) del(atrobot(loc_x2_y0),5) del(atrobot(loc_x2_y1),6) del(atrobot(loc_x3_y1),7) del(atrobot(loc_x2_y1),8) del(atrobot(loc_x2_y0),9) del(atrobot(loc_x1_y0),10) del(atrobot(loc_x0_y0),11) del(atrobot(loc_x0_y1),12) del(atrobot(loc_x1_y1),13) del(atrobot(loc_x1_y2),14) del(atrobot(loc_x2_y2),15) del(atrobot(loc_x3_y2),16) del(atrobot(loc_x3_y3),17) del(atrobot(loc_x2_y3),18) del(atrobot(loc_x1_y3),19) visited(loc_x1_y0) visited(loc_x0_y1) visited(loc_x1_y1) visited(loc_x0_y0) visited(loc_x1_y3) visited(loc_x2_y0) visited(loc_x2_y1) visited(loc_x1_y2) visited(loc_x0_y3) visited(loc_x2_y3) visited(loc_x3_y1) visited(loc_x3_y2) visited(loc_x3_y3) goalreached
SATISFIABLE

Models       : 10+
Calls        : 1
Time         : 0.102s (Solving: 0.08s 1st Model: 0.02s Unsat: 0.00s)
CPU Time     : 0.102s
